\ENCODING=ISO-8859-1
\Problem name: 

Minimize
 obj: x1 + x2 + x3 + x4 + x5 + x6 + x7 + x8 + x9 + 2 x10 + 2 x11 + 2 x12
      + 2 x13 + 2 x14 + 2 x15 + 2 x16 + 3 x17 + 3 x18 + 3 x19 + 3 x20 + 3 x21
      + 3 x22 + 3 x23 + 3 x24 + 3 x25 + 3 x26 + 3 x27 + 3 x28 + 4 x29 + 4 x30
      + 4 x31 + 4 x32 + 4 x33 + 4 x34 + 4 x35 + 4 x36 + 4 x37 + 4 x38 + 4 x39
      + 4 x40 + 4 x41 + 4 x42 + 5 x43 + 5 x44 + 5 x45 + 5 x46 + 5 x47 + 5 x48
      + 5 x49 + 5 x50 + 5 x51 + 5 x52 + 5 x53 + 5 x54 + 5 x55 + 5 x56 + 6 x57
      + 6 x58 + 6 x59 + 6 x60 + 6 x61 + 6 x62 + 6 x63 + 6 x64 + 6 x65 + 6 x66
      + 7 x67 + 7 x68 + 7 x69 + 7 x70 + 7 x71 + 7 x72 + 8 x73 + 8 x74 + 8 x75
      + 8 x76 + 9 x77 + 9 x78 + 9 x79 + 9 x80 + 9 x81 + 9 x82 + 9 x83 + 9 x84
      + 10 x85 + 10 x86 + 10 x87 + 10 x88 + 10 x89 + 11 x90 + 11 x91 + 11 x92
      + 11 x93 + 11 x94 + 11 x95 + 11 x96 + 11 x97 + 12 x98 + 12 x99 + 12 x100
      + 12 x101 + 12 x102 + 12 x103 + 12 x104 + 12 x105 + 12 x106 + 13 x107
      + 13 x108 + 13 x109 + 13 x110 + 13 x111 + 13 x112 + 13 x113 + 13 x114
      + 14 x115 + 14 x116 + 14 x117 + 15 x118 + 15 x119 + 15 x120 + 15 x121
      + 16 x122 + 16 x123 + 16 x124 + 16 x125 + 16 x126 + 16 x127 + 16 x128
      + 17 x129 + 17 x130 + 17 x131 + 17 x132 + 17 x133 + 18 x134 + 18 x135
      + 18 x136 + 18 x137 + 18 x138 + 18 x139 + 18 x140 + 19 x141 + 19 x142
      + 19 x143 + 19 x144 + 20 x145 + 21 x146 + 21 x147 + 21 x148 + 22 x149
      + 22 x150 + 23 x151 + 23 x152 + 23 x153 + 23 x154 + 24 x155 + 24 x156
      + 24 x157 + 24 x158 + 24 x159 + 24 x160 + 25 x161 + 25 x162 + 25 x163
      + 26 x164 + 26 x165 + 26 x166 + 27 x167 + 27 x168 + 27 x169 + 28 x170
      + 28 x171 + 30 x172 + 30 x173 + 30 x174 + 31 x175 + 33 x176 + 33 x177
      + 34 x178 + 34 x179 + 34 x180 + 36 x181 + 36 x182 + 36 x183 + 36 x184
      + 37 x185 + 37 x186 + 37 x187 + 37 x188 + 38 x189 + 38 x190 + 38 x191
      + 41 x192 + 42 x193 + 43 x194 + 43 x195 + 50 x196 + 51 x197 + 52 x198
      + 53 x199 + 57 x200
Subject To
 c1:   x18 + x99 >= 1
 c2:   x10 + x17 + x58 >= 1
 c3:   x153 + x170 + x172 + x175 + x184 + x194 >= 1
 c4:   x17 + x28 + x130 + x151 + x192 >= 1
 c5:   x17 + x69 + x93 + x109 + x129 >= 1
 c6:   x138 + x139 + x148 + x150 + x155 + x182 + x188 >= 1
 c7:   x18 + x22 + x153 >= 1
 c8:   x29 + x33 + x67 + x98 + x163 + x181 >= 1
 c9:   x21 + x141 + x175 >= 1
 c10:  x92 + x136 + x181 >= 1
 c11:  x34 + x54 + x68 + x92 >= 1
 c12:  x19 + x85 + x124 + x129 >= 1
 c13:  x111 + x129 + x148 + x155 + x174 + x179 + x192 >= 1
 c14:  x48 + x135 >= 1
 c15:  x12 + x99 + x194 >= 1
 c16:  x58 + x64 + x119 + x177 + x185 >= 1
 c17:  x29 + x30 + x108 + x183 >= 1
 c18:  x61 + x74 + x92 + x156 + x176 + x177 >= 1
 c19:  x30 + x63 + x85 + x124 + x151 + x166 >= 1
 c20:  x60 + x93 + x101 + x182 + x194 >= 1
 c21:  x72 + x115 + x126 + x155 + x198 >= 1
 c22:  x41 >= 1
 c23:  x21 + x22 + x60 + x67 + x85 + x124 >= 1
 c24:  x31 + x73 + x156 + x162 + x163 >= 1
 c25:  x47 + x97 >= 1
 c26:  x23 + x46 + x62 + x87 + x88 + x170 >= 1
 c27:  x119 + x140 + x164 + x200 >= 1
 c28:  x7 + x12 + x47 + x67 + x90 + x170 >= 1
 c29:  x149 + x165 + x176 + x180 >= 1
 c30:  x20 + x34 + x90 + x134 + x150 + x157 + x184 >= 1
 c31:  x6 + x11 + x153 >= 1
 c32:  x40 + x66 + x76 + x81 + x97 + x119 + x182 + x185 >= 1
 c33:  x128 + x194 >= 1
 c34:  x132 + x143 + x146 + x188 >= 1
 c35:  x29 + x50 + x84 + x90 + x117 + x163 >= 1
 c36:  x19 + x91 + x109 + x191 >= 1
 c37:  x43 + x104 + x113 + x120 + x149 + x190 + x194 >= 1
 c38:  x69 + x114 + x186 >= 1
 c39:  x15 + x29 + x43 + x125 + x129 + x134 + x169 >= 1
 c40:  x20 + x50 + x70 + x94 + x97 + x123 + x127 >= 1
 c41:  x26 + x97 + x98 >= 1
 c42:  x115 + x158 + x160 + x185 + x191 >= 1
 c43:  x77 + x115 + x120 + x121 + x177 + x190 >= 1
 c44:  x31 + x57 + x75 + x90 + x136 + x157 + x198 >= 1
 c45:  x30 + x32 + x43 + x86 + x92 + x99 + x105 + x122 + x186 >= 1
 c46:  x19 + x94 + x168 >= 1
 c47:  x2 + x48 + x72 + x111 >= 1
 c48:  x3 + x194 >= 1
 c49:  x24 + x58 + x86 + x89 + x187 + x194 >= 1
 c50:  x73 + x141 + x152 + x178 + x185 + x186 >= 1
 c51:  x28 + x29 + x87 + x138 + x152 + x180 + x183 >= 1
 c52:  x18 + x21 + x130 + x147 >= 1
 c53:  x58 + x118 + x120 + x140 + x146 + x169 + x181 + x183 >= 1
 c54:  x30 + x92 + x136 >= 1
 c55:  x54 + x172 + x177 >= 1
 c56:  x9 + x69 + x73 + x79 + x165 >= 1
 c57:  x18 + x32 + x45 + x149 + x189 >= 1
 c58:  x1 + x47 + x137 + x154 + x162 >= 1
 c59:  x62 + x96 + x110 + x126 + x149 + x178 >= 1
 c60:  x161 + x168 + x173 + x182 + x189 + x196 + x200 >= 1
 c61:  x20 + x175 + x179 >= 1
 c62:  x34 + x59 + x71 + x78 + x145 + x158 + x190 + x192 + x193 >= 1
 c63:  x187 + x189 + x193 + x197 + x199 >= 1
 c64:  x37 + x59 + x61 + x110 + x118 + x130 + x156 + x165 >= 1
 c65:  x14 + x62 + x70 + x79 + x109 + x136 + x161 >= 1
 c66:  x50 + x52 + x77 + x85 + x126 + x152 + x188 >= 1
 c67:  x65 + x79 + x109 + x129 + x179 >= 1
 c68:  x5 + x65 + x92 + x107 + x132 + x166 + x193 >= 1
 c69:  x62 + x190 + x198 >= 1
 c70:  x4 + x72 + x82 + x169 >= 1
 c71:  x31 + x129 + x172 >= 1
 c72:  x14 + x30 + x59 + x77 + x101 + x151 + x198 >= 1
 c73:  x46 + x49 + x107 + x134 + x181 + x198 >= 1
 c74:  x45 + x49 + x177 + x185 + x195 >= 1
 c75:  x17 + x31 + x156 + x165 + x176 >= 1
 c76:  x74 + x99 + x131 + x155 + x167 + x171 >= 1
 c77:  x89 + x91 + x112 + x115 + x183 >= 1
 c78:  x1 + x33 + x134 + x135 + x150 + x156 + x164 + x189 + x192 >= 1
 c79:  x127 + x153 + x164 + x199 >= 1
 c80:  x98 + x147 + x157 + x159 + x174 >= 1
 c81:  x63 + x75 + x80 + x122 >= 1
 c82:  x45 + x64 + x92 >= 1
 c83:  x16 + x57 + x69 + x95 + x107 + x152 >= 1
 c84:  x43 + x116 + x129 + x155 + x178 >= 1
 c85:  x66 + x88 + x167 >= 1
 c86:  x166 + x169 + x171 + x190 + x195 >= 1
 c87:  x24 + x33 + x73 + x93 + x183 >= 1
 c88:  x2 + x4 + x120 + x146 >= 1
 c89:  x57 + x129 + x176 >= 1
 c90:  x5 + x21 + x74 + x142 + x158 >= 1
 c91:  x74 + x93 + x116 + x156 >= 1
 c92:  x72 + x86 + x117 + x167 >= 1
 c93:  x32 + x102 + x152 >= 1
 c94:  x78 + x91 + x127 + x147 + x154 + x156 + x169 + x186 >= 1
 c95:  x12 + x19 + x41 + x46 + x195 >= 1
 c96:  x68 + x116 + x123 + x137 + x154 + x161 + x181 >= 1
 c97:  x7 + x29 + x46 + x111 + x142 >= 1
 c98:  x45 + x91 + x106 + x148 + x189 + x196 >= 1
 c99:  x55 + x114 + x131 >= 1
 c100: x40 + x61 + x71 + x178 >= 1
 c101: x1 + x85 + x117 + x198 >= 1
 c102: x11 + x58 + x95 + x155 + x186 >= 1
 c103: x1 + x3 + x8 >= 1
 c104: x99 + x159 + x160 + x163 + x180 + x181 >= 1
 c105: x17 + x30 + x67 >= 1
 c106: x43 + x49 + x68 + x91 + x101 + x118 + x147 + x162 + x182 + x197 >= 1
 c107: x35 + x76 + x95 + x121 + x151 + x195 >= 1
 c108: x83 + x93 + x128 + x145 + x187 >= 1
 c109: x61 >= 1
 c110: x29 + x43 + x51 + x170 >= 1
 c111: x6 + x17 + x81 + x184 + x200 >= 1
 c112: x103 + x137 + x163 + x171 >= 1
 c113: x6 + x94 + x173 >= 1
 c114: x22 + x26 + x80 + x82 + x100 + x139 + x142 >= 1
 c115: x90 + x118 + x131 + x162 + x178 + x185 >= 1
 c116: x44 + x77 + x100 + x151 >= 1
 c117: x47 + x112 + x114 + x189 >= 1
 c118: x32 + x44 + x118 + x134 + x189 >= 1
 c119: x82 + x107 + x141 + x176 + x192 >= 1
 c120: x10 + x101 >= 1
 c121: x2 + x67 + x103 + x194 >= 1
 c122: x83 + x84 + x118 + x123 + x150 + x157 + x182 + x185 >= 1
 c123: x25 + x39 + x48 + x125 + x153 >= 1
 c124: x44 + x111 + x149 + x179 >= 1
 c125: x4 + x33 + x57 + x117 + x175 + x196 >= 1
 c126: x106 + x135 + x190 + x197 >= 1
 c127: x32 + x35 + x91 + x98 + x108 + x123 + x168 >= 1
 c128: x18 + x131 + x184 >= 1
 c129: x57 + x88 + x102 + x190 >= 1
 c130: x53 + x57 + x86 + x105 + x108 + x128 >= 1
 c131: x50 + x77 + x90 + x94 + x150 + x162 + x182 >= 1
 c132: x18 + x38 + x124 + x168 >= 1
 c133: x100 + x110 + x121 + x124 + x134 + x151 + x196 >= 1
 c134: x68 + x133 + x176 + x179 >= 1
 c135: x69 + x130 + x141 + x161 + x193 >= 1
 c136: x58 + x139 + x162 >= 1
 c137: x11 + x91 + x115 + x150 + x181 >= 1
 c138: x23 + x52 + x122 + x131 + x167 + x183 + x187 + x198 >= 1
 c139: x51 + x103 >= 1
 c140: x35 + x79 + x83 >= 1
 c141: x7 + x24 + x51 + x194 >= 1
 c142: x11 + x67 + x97 + x168 >= 1
 c143: x66 + x68 + x90 + x102 + x110 + x176 + x177 >= 1
 c144: x13 + x52 + x71 >= 1
 c145: x38 + x64 + x116 >= 1
 c146: x19 + x63 + x66 + x68 + x80 + x107 + x143 + x189 >= 1
 c147: x47 + x69 + x96 + x118 + x149 + x191 >= 1
 c148: x19 + x38 + x39 + x78 + x85 + x108 + x140 + x173 >= 1
 c149: x45 + x51 >= 1
 c150: x10 + x91 + x122 + x139 + x140 + x145 + x181 >= 1
 c151: x62 + x77 + x118 + x158 >= 1
 c152: x31 + x122 + x133 + x137 + x171 + x184 >= 1
 c153: x57 + x59 + x133 + x159 + x167 >= 1
 c154: x42 + x53 + x138 + x195 + x196 >= 1
 c155: x65 + x76 + x174 >= 1
 c156: x4 + x18 >= 1
 c157: x5 + x27 + x70 + x115 + x119 + x179 >= 1
 c158: x25 + x75 + x108 + x176 + x192 >= 1
 c159: x20 + x57 + x151 + x163 + x187 >= 1
 c160: x60 >= 1
 c161: x44 + x48 + x115 + x143 + x164 >= 1
 c162: x3 + x78 + x96 + x125 + x157 + x173 >= 1
 c163: x15 + x95 + x178 + x194 >= 1
 c164: x22 + x134 + x200 >= 1
 c165: x90 + x117 + x183 + x192 >= 1
 c166: x25 + x110 + x135 + x197 >= 1
 c167: x8 + x181 + x191 >= 1
 c168: x125 + x129 + x142 + x144 + x161 + x188 >= 1
 c169: x86 + x152 + x191 + x200 >= 1
 c170: x20 + x53 + x71 + x95 + x106 + x146 + x153 >= 1
 c171: x56 + x76 + x126 + x157 + x180 >= 1
 c172: x70 + x154 + x155 + x179 + x184 >= 1
 c173: x26 + x78 + x108 + x116 + x122 >= 1
 c174: x6 + x34 + x58 + x82 + x172 >= 1
 c175: x60 + x87 + x144 + x172 >= 1
 c176: x2 + x10 + x36 + x98 + x108 + x125 + x129 + x141 >= 1
 c177: x113 + x132 + x187 + x191 >= 1
 c178: x64 + x94 + x149 + x153 + x164 + x196 >= 1
 c179: x23 + x80 + x84 + x143 + x161 >= 1
 c180: x9 + x35 + x59 + x71 + x90 + x181 >= 1
 c181: x37 + x39 + x81 + x96 + x132 + x195 >= 1
 c182: x61 + x104 + x138 + x145 + x186 >= 1
 c183: x44 + x103 + x167 + x173 >= 1
 c184: x19 + x37 + x121 + x135 >= 1
 c185: x5 + x199 >= 1
 c186: x59 + x105 + x123 + x130 >= 1
 c187: x1 + x21 + x33 + x46 + x107 >= 1
 c188: x1 + x18 + x75 + x107 + x122 + x133 >= 1
 c189: x36 + x44 + x45 + x81 + x87 + x96 >= 1
 c190: x23 + x136 + x186 >= 1
 c191: x2 + x3 + x19 + x70 + x102 + x175 >= 1
 c192: x17 + x43 + x65 + x74 + x112 >= 1
 c193: x13 + x54 + x116 + x185 >= 1
 c194: x49 + x109 + x113 + x146 + x168 >= 1
 c195: x20 + x60 + x104 >= 1
 c196: x73 + x100 + x151 + x187 + x200 >= 1
 c197: x17 + x57 + x145 + x150 + x152 >= 1
 c198: x8 + x63 + x123 >= 1
 c199: x175 + x178 + x198 >= 1
 c200: x27 + x36 + x88 + x109 >= 1
Bounds
 0 <= x1 <= 1
 0 <= x2 <= 1
 0 <= x3 <= 1
 0 <= x4 <= 1
 0 <= x5 <= 1
 0 <= x6 <= 1
 0 <= x7 <= 1
 0 <= x8 <= 1
 0 <= x9 <= 1
 0 <= x10 <= 1
 0 <= x11 <= 1
 0 <= x12 <= 1
 0 <= x13 <= 1
 0 <= x14 <= 1
 0 <= x15 <= 1
 0 <= x16 <= 1
 0 <= x17 <= 1
 0 <= x18 <= 1
 0 <= x19 <= 1
 0 <= x20 <= 1
 0 <= x21 <= 1
 0 <= x22 <= 1
 0 <= x23 <= 1
 0 <= x24 <= 1
 0 <= x25 <= 1
 0 <= x26 <= 1
 0 <= x27 <= 1
 0 <= x28 <= 1
 0 <= x29 <= 1
 0 <= x30 <= 1
 0 <= x31 <= 1
 0 <= x32 <= 1
 0 <= x33 <= 1
 0 <= x34 <= 1
 0 <= x35 <= 1
 0 <= x36 <= 1
 0 <= x37 <= 1
 0 <= x38 <= 1
 0 <= x39 <= 1
 0 <= x40 <= 1
 0 <= x41 <= 1
 0 <= x42 <= 1
 0 <= x43 <= 1
 0 <= x44 <= 1
 0 <= x45 <= 1
 0 <= x46 <= 1
 0 <= x47 <= 1
 0 <= x48 <= 1
 0 <= x49 <= 1
 0 <= x50 <= 1
 0 <= x51 <= 1
 0 <= x52 <= 1
 0 <= x53 <= 1
 0 <= x54 <= 1
 0 <= x55 <= 1
 0 <= x56 <= 1
 0 <= x57 <= 1
 0 <= x58 <= 1
 0 <= x59 <= 1
 0 <= x60 <= 1
 0 <= x61 <= 1
 0 <= x62 <= 1
 0 <= x63 <= 1
 0 <= x64 <= 1
 0 <= x65 <= 1
 0 <= x66 <= 1
 0 <= x67 <= 1
 0 <= x68 <= 1
 0 <= x69 <= 1
 0 <= x70 <= 1
 0 <= x71 <= 1
 0 <= x72 <= 1
 0 <= x73 <= 1
 0 <= x74 <= 1
 0 <= x75 <= 1
 0 <= x76 <= 1
 0 <= x77 <= 1
 0 <= x78 <= 1
 0 <= x79 <= 1
 0 <= x80 <= 1
 0 <= x81 <= 1
 0 <= x82 <= 1
 0 <= x83 <= 1
 0 <= x84 <= 1
 0 <= x85 <= 1
 0 <= x86 <= 1
 0 <= x87 <= 1
 0 <= x88 <= 1
 0 <= x89 <= 1
 0 <= x90 <= 1
 0 <= x91 <= 1
 0 <= x92 <= 1
 0 <= x93 <= 1
 0 <= x94 <= 1
 0 <= x95 <= 1
 0 <= x96 <= 1
 0 <= x97 <= 1
 0 <= x98 <= 1
 0 <= x99 <= 1
 0 <= x100 <= 1
 0 <= x101 <= 1
 0 <= x102 <= 1
 0 <= x103 <= 1
 0 <= x104 <= 1
 0 <= x105 <= 1
 0 <= x106 <= 1
 0 <= x107 <= 1
 0 <= x108 <= 1
 0 <= x109 <= 1
 0 <= x110 <= 1
 0 <= x111 <= 1
 0 <= x112 <= 1
 0 <= x113 <= 1
 0 <= x114 <= 1
 0 <= x115 <= 1
 0 <= x116 <= 1
 0 <= x117 <= 1
 0 <= x118 <= 1
 0 <= x119 <= 1
 0 <= x120 <= 1
 0 <= x121 <= 1
 0 <= x122 <= 1
 0 <= x123 <= 1
 0 <= x124 <= 1
 0 <= x125 <= 1
 0 <= x126 <= 1
 0 <= x127 <= 1
 0 <= x128 <= 1
 0 <= x129 <= 1
 0 <= x130 <= 1
 0 <= x131 <= 1
 0 <= x132 <= 1
 0 <= x133 <= 1
 0 <= x134 <= 1
 0 <= x135 <= 1
 0 <= x136 <= 1
 0 <= x137 <= 1
 0 <= x138 <= 1
 0 <= x139 <= 1
 0 <= x140 <= 1
 0 <= x141 <= 1
 0 <= x142 <= 1
 0 <= x143 <= 1
 0 <= x144 <= 1
 0 <= x145 <= 1
 0 <= x146 <= 1
 0 <= x147 <= 1
 0 <= x148 <= 1
 0 <= x149 <= 1
 0 <= x150 <= 1
 0 <= x151 <= 1
 0 <= x152 <= 1
 0 <= x153 <= 1
 0 <= x154 <= 1
 0 <= x155 <= 1
 0 <= x156 <= 1
 0 <= x157 <= 1
 0 <= x158 <= 1
 0 <= x159 <= 1
 0 <= x160 <= 1
 0 <= x161 <= 1
 0 <= x162 <= 1
 0 <= x163 <= 1
 0 <= x164 <= 1
 0 <= x165 <= 1
 0 <= x166 <= 1
 0 <= x167 <= 1
 0 <= x168 <= 1
 0 <= x169 <= 1
 0 <= x170 <= 1
 0 <= x171 <= 1
 0 <= x172 <= 1
 0 <= x173 <= 1
 0 <= x174 <= 1
 0 <= x175 <= 1
 0 <= x176 <= 1
 0 <= x177 <= 1
 0 <= x178 <= 1
 0 <= x179 <= 1
 0 <= x180 <= 1
 0 <= x181 <= 1
 0 <= x182 <= 1
 0 <= x183 <= 1
 0 <= x184 <= 1
 0 <= x185 <= 1
 0 <= x186 <= 1
 0 <= x187 <= 1
 0 <= x188 <= 1
 0 <= x189 <= 1
 0 <= x190 <= 1
 0 <= x191 <= 1
 0 <= x192 <= 1
 0 <= x193 <= 1
 0 <= x194 <= 1
 0 <= x195 <= 1
 0 <= x196 <= 1
 0 <= x197 <= 1
 0 <= x198 <= 1
 0 <= x199 <= 1
 0 <= x200 <= 1
Binaries
 x1  x2  x3  x4  x5  x6  x7  x8  x9  x10  x11  x12  x13  x14  x15  x16  x17 
 x18  x19  x20  x21  x22  x23  x24  x25  x26  x27  x28  x29  x30  x31  x32 
 x33  x34  x35  x36  x37  x38  x39  x40  x41  x42  x43  x44  x45  x46  x47 
 x48  x49  x50  x51  x52  x53  x54  x55  x56  x57  x58  x59  x60  x61  x62 
 x63  x64  x65  x66  x67  x68  x69  x70  x71  x72  x73  x74  x75  x76  x77 
 x78  x79  x80  x81  x82  x83  x84  x85  x86  x87  x88  x89  x90  x91  x92 
 x93  x94  x95  x96  x97  x98  x99  x100  x101  x102  x103  x104  x105  x106 
 x107  x108  x109  x110  x111  x112  x113  x114  x115  x116  x117  x118  x119 
 x120  x121  x122  x123  x124  x125  x126  x127  x128  x129  x130  x131  x132 
 x133  x134  x135  x136  x137  x138  x139  x140  x141  x142  x143  x144  x145 
 x146  x147  x148  x149  x150  x151  x152  x153  x154  x155  x156  x157  x158 
 x159  x160  x161  x162  x163  x164  x165  x166  x167  x168  x169  x170  x171 
 x172  x173  x174  x175  x176  x177  x178  x179  x180  x181  x182  x183  x184 
 x185  x186  x187  x188  x189  x190  x191  x192  x193  x194  x195  x196  x197 
 x198  x199  x200 
End
